proyfinal/src/viki/013/experimentInOfficeAgust.take6.output/580f4e6a-f1de-45c1-bc90-38032f0196c5.als.out
Reading from standard input... Use '--help' for help.
============================[ Problem Statistics ]=============================
|                                                                             |
|  Number of variables:         87638                                         |
|  Number of clauses:          161767                                         |
|  Parse time:                   0.03 s                                       |
|                                                                             |
============================[ Search Statistics ]==============================
| Conflicts |          ORIGINAL         |          LEARNT          | Progress |
|           |    Vars  Clauses Literals |    Limit  Clauses Lit/Cl |          |
===============================================================================
|       100 |   63218   108233   270345 |    39685      100     12 | 27.865 % |
|       250 |   63218   108233   270345 |    43653      250     42 | 27.865 % |
|       475 |   63218   108233   270345 |    48019      475     41 | 27.865 % |
|       812 |   54514    82324   206539 |    52821      805     43 | 37.796 % |
|      1318 |   54514    82324   206539 |    58103     1311     52 | 37.796 % |
|      2077 |   54282    81834   205241 |    63913     2067     64 | 38.061 % |
|      3216 |   54282    81834   205241 |    70305     3206     69 | 38.061 % |
|      4924 |   53905    80371   201740 |    77335     4635     76 | 38.491 % |
|      7486 |   53788    80292   201508 |    85069     7193     87 | 38.625 % |
|     11330 |   53484    78977   198326 |    93576    10532     87 | 38.972 % |
|     17096 |   53399    78568   197363 |   102933    16261     89 | 39.069 % |
===============================================================================
restarts              : 63
conflicts             : 18251          (7457 /sec)
decisions             : 69254          (0.00 % random) (28295 /sec)
propagations          : 24265695       (9914340 /sec)
conflict literals     : 1567910        (39.08 % deleted)
Memory used           : 41.79 MB
CPU time              : 2.44754 s

INDETERMINATE
